c Problem taken from UMiami CS as mentioned in the README
c The mappings from lettered to numeric literals were done
c alphabetically: l=1, m=2, n=3, p=4, q=5, r=6, t=7
c
c The correct answer should be 0000111 respectively to the
c mapping above.
c
c Note: If attempting to debug or look through the decision
c tree on this problem, that these are 0 indexed and l is
c internally represented as 0.
p cnf 7 8
-3 -7 0
2 5 3 0
1 -2 0
-1 -5 0
1 -4 0
6 4 3 0
-6 -1 0
7 0